outputs_gen_init_cpio/abstracted/ErrorPath.0.smt2
(set-info :source |printed by MathSAT|)
(declare-fun __ADDRESS_OF_Num () Real)
(declare-fun __BASE_ADDRESS_OF__ (Real) Real)
(declare-fun Num@2 () Real)
(declare-fun Num@3 () Real)
(declare-fun Num@4 () Real)
(define-fun .def_44 () Bool (<= (to_real 0) Num@4))
(define-fun .def_47 () Bool (not .def_44))
(define-fun .def_40 () Real (* (to_real (- 1)) Num@4))
(define-fun .def_41 () Real (+ Num@3 .def_40))
(define-fun .def_42 () Bool (= .def_41 (to_real 1)))
(define-fun .def_22 () Bool (<= (to_real 0) Num@3))
(define-fun .def_18 () Real (* (to_real (- 1)) Num@3))
(define-fun .def_19 () Real (+ Num@2 .def_18))
(define-fun .def_20 () Bool (= .def_19 (to_real 1)))
(define-fun .def_13 () Bool (= Num@2 (to_real 1)))
(define-fun .def_9 () Real (__BASE_ADDRESS_OF__ __ADDRESS_OF_Num))
(define-fun .def_10 () Bool (= __ADDRESS_OF_Num .def_9))
(define-fun .def_14 () Bool (and .def_10 .def_13))
(define-fun .def_21 () Bool (and .def_14 .def_20))
(define-fun .def_24 () Bool (and .def_21 .def_22))
(define-fun .def_43 () Bool (and .def_24 .def_42))
(define-fun .def_48 () Bool (and .def_43 .def_47))
(assert .def_48)
